\ENCODING=ISO-8859-1
\Problem name: 

Minimize
 obj: x1 + x2 + x3 + x4 + x5 + x6 + x7 + x8 + x9 + x10 + x11 + x12 + x13 + x14
      + x15 + x16 + x17 + x18 + x19 + x20 + x21 + x22 + x23 + x24 + x25 + x26
      + x27 + x28 + x29 + 2 x30 + 2 x31 + 2 x32 + 2 x33 + 2 x34 + 2 x35 + 2 x36
      + 2 x37 + 2 x38 + 2 x39 + 2 x40 + 2 x41 + 2 x42 + 2 x43 + 2 x44 + 2 x45
      + 2 x46 + 2 x47 + 2 x48 + 2 x49 + 2 x50 + 2 x51 + 2 x52 + 2 x53 + 2 x54
      + 2 x55 + 2 x56 + 2 x57 + 2 x58 + 2 x59 + 2 x60 + 3 x61 + 3 x62 + 3 x63
      + 3 x64 + 3 x65 + 3 x66 + 3 x67 + 3 x68 + 3 x69 + 3 x70 + 3 x71 + 3 x72
      + 3 x73 + 3 x74 + 3 x75 + 3 x76 + 3 x77 + 3 x78 + 3 x79 + 3 x80 + 3 x81
      + 3 x82 + 3 x83 + 3 x84 + 3 x85 + 3 x86 + 3 x87 + 3 x88 + 3 x89 + 3 x90
      + 3 x91 + 3 x92 + 3 x93 + 3 x94 + 3 x95 + 3 x96 + 3 x97 + 3 x98 + 3 x99
      + 3 x100 + 3 x101 + 3 x102 + 4 x103 + 4 x104 + 4 x105 + 4 x106 + 4 x107
      + 4 x108 + 4 x109 + 4 x110 + 4 x111 + 4 x112 + 4 x113 + 4 x114 + 4 x115
      + 4 x116 + 4 x117 + 4 x118 + 4 x119 + 4 x120 + 4 x121 + 4 x122 + 4 x123
      + 4 x124 + 4 x125 + 4 x126 + 4 x127 + 4 x128 + 4 x129 + 4 x130 + 4 x131
      + 4 x132 + 4 x133 + 5 x134 + 5 x135 + 5 x136 + 5 x137 + 5 x138 + 5 x139
      + 5 x140 + 5 x141 + 5 x142 + 5 x143 + 5 x144 + 5 x145 + 5 x146 + 5 x147
      + 5 x148 + 5 x149 + 6 x150 + 6 x151 + 6 x152 + 6 x153 + 6 x154 + 6 x155
      + 6 x156 + 6 x157 + 6 x158 + 6 x159 + 6 x160 + 6 x161 + 6 x162 + 6 x163
      + 6 x164 + 6 x165 + 6 x166 + 6 x167 + 6 x168 + 6 x169 + 6 x170 + 6 x171
      + 6 x172 + 6 x173 + 6 x174 + 6 x175 + 6 x176 + 6 x177 + 6 x178 + 7 x179
      + 7 x180 + 7 x181 + 7 x182 + 7 x183 + 7 x184 + 7 x185 + 7 x186 + 7 x187
      + 7 x188 + 7 x189 + 7 x190 + 7 x191 + 7 x192 + 7 x193 + 7 x194 + 7 x195
      + 7 x196 + 7 x197 + 7 x198 + 7 x199 + 7 x200 + 7 x201 + 8 x202 + 8 x203
      + 8 x204 + 8 x205 + 8 x206 + 8 x207 + 8 x208 + 8 x209 + 8 x210 + 8 x211
      + 8 x212 + 8 x213 + 8 x214 + 8 x215 + 8 x216 + 8 x217 + 8 x218 + 8 x219
      + 8 x220 + 8 x221 + 8 x222 + 9 x223 + 9 x224 + 9 x225 + 9 x226 + 9 x227
      + 9 x228 + 9 x229 + 9 x230 + 9 x231 + 9 x232 + 9 x233 + 9 x234 + 9 x235
      + 9 x236 + 9 x237 + 9 x238 + 9 x239 + 9 x240 + 9 x241 + 9 x242 + 9 x243
      + 9 x244 + 9 x245 + 9 x246 + 9 x247 + 10 x248 + 10 x249 + 10 x250
      + 10 x251 + 10 x252 + 10 x253 + 10 x254 + 10 x255 + 10 x256 + 10 x257
      + 10 x258 + 10 x259 + 10 x260 + 10 x261 + 10 x262 + 10 x263 + 10 x264
      + 11 x265 + 11 x266 + 11 x267 + 11 x268 + 11 x269 + 11 x270 + 11 x271
      + 11 x272 + 11 x273 + 11 x274 + 11 x275 + 11 x276 + 11 x277 + 11 x278
      + 11 x279 + 11 x280 + 12 x281 + 12 x282 + 12 x283 + 12 x284 + 12 x285
      + 12 x286 + 12 x287 + 13 x288 + 13 x289 + 13 x290 + 13 x291 + 13 x292
      + 13 x293 + 13 x294 + 13 x295 + 13 x296 + 13 x297 + 13 x298 + 13 x299
      + 14 x300 + 14 x301 + 14 x302 + 14 x303 + 15 x304 + 15 x305 + 15 x306
      + 15 x307 + 15 x308 + 15 x309 + 15 x310 + 15 x311 + 15 x312 + 16 x313
      + 16 x314 + 16 x315 + 16 x316 + 16 x317 + 16 x318 + 16 x319 + 16 x320
      + 16 x321 + 17 x322 + 17 x323 + 18 x324 + 18 x325 + 18 x326 + 19 x327
      + 19 x328 + 19 x329 + 20 x330 + 20 x331 + 20 x332 + 20 x333 + 21 x334
      + 21 x335 + 21 x336 + 21 x337 + 21 x338 + 21 x339 + 22 x340 + 24 x341
Subject To
 c1:   x2 + x135 + x158 + x247 + x253 + x300 + x313 + x331 + x339 >= 1
 c2:   x24 + x116 + x136 + x180 + x308 >= 1
 c3:   x109 + x159 + x190 + x232 + x238 + x293 >= 1
 c4:   x18 + x161 + x212 + x316 >= 1
 c5:   x1 + x38 + x56 + x224 + x250 + x287 + x326 >= 1
 c6:   x7 + x118 + x189 + x204 + x291 >= 1
 c7:   x30 + x39 + x105 + x117 + x289 + x305 + x306 >= 1
 c8:   x1 + x126 + x208 + x263 + x287 + x335 >= 1
 c9:   x101 + x168 + x281 + x300 >= 1
 c10:  x33 + x46 + x64 + x94 + x162 + x186 + x203 + x211 + x231 + x248 + x276
       + x309 + x336 >= 1
 c11:  x64 + x76 + x158 + x179 + x194 >= 1
 c12:  x11 + x36 + x169 + x204 + x253 + x307 >= 1
 c13:  x64 + x75 + x191 + x203 + x215 + x222 + x259 + x272 + x313 + x315 >= 1
 c14:  x112 + x114 + x116 + x271 + x288 + x330 >= 1
 c15:  x182 + x185 + x241 + x262 + x268 + x273 + x297 + x303 + x307 + x326 >= 1
 c16:  x3 + x22 + x103 + x191 + x266 >= 1
 c17:  x64 + x75 + x136 + x144 + x252 + x254 + x305 + x314 + x320 + x335 >= 1
 c18:  x8 + x13 + x107 + x135 + x182 + x197 >= 1
 c19:  x36 + x61 + x137 + x262 + x263 + x267 + x336 + x339 >= 1
 c20:  x38 + x91 + x102 + x108 + x115 + x135 + x187 + x213 >= 1
 c21:  x31 + x99 + x181 + x183 + x322 + x327 + x330 >= 1
 c22:  x47 + x105 + x132 + x249 + x278 >= 1
 c23:  x4 + x170 + x180 + x181 + x185 + x188 + x288 >= 1
 c24:  x99 + x134 + x144 + x190 + x193 + x266 + x314 >= 1
 c25:  x45 + x67 + x84 + x85 + x155 + x159 + x181 + x240 + x250 + x251 + x260
       + x311 >= 1
 c26:  x37 + x98 + x156 + x262 >= 1
 c27:  x31 + x67 + x140 + x182 + x202 >= 1
 c28:  x142 + x147 + x174 + x185 + x237 + x254 + x273 + x277 + x334 >= 1
 c29:  x2 + x53 + x272 >= 1
 c30:  x43 + x84 + x96 + x141 + x160 + x195 + x223 + x261 + x292 >= 1
 c31:  x15 + x86 + x104 + x151 + x159 + x261 + x272 >= 1
 c32:  x17 + x32 + x34 + x73 + x210 + x281 + x282 + x288 >= 1
 c33:  x30 + x53 + x64 + x123 + x195 + x244 + x291 + x327 + x328 >= 1
 c34:  x23 + x105 + x109 + x164 + x169 + x229 + x230 + x254 >= 1
 c35:  x2 + x26 + x33 + x41 + x143 + x186 + x204 + x217 + x220 >= 1
 c36:  x274 + x279 + x280 + x298 + x336 + x341 >= 1
 c37:  x11 + x17 + x33 + x202 + x281 >= 1
 c38:  x15 + x106 + x151 + x167 + x247 + x318 >= 1
 c39:  x104 + x118 + x138 + x152 + x172 + x201 + x216 + x250 + x330 >= 1
 c40:  x25 + x86 + x95 + x112 + x163 + x203 + x336 >= 1
 c41:  x1 + x154 + x156 + x157 + x160 + x316 >= 1
 c42:  x85 + x114 + x301 >= 1
 c43:  x150 + x162 + x211 + x214 + x225 + x243 + x291 + x301 + x314 >= 1
 c44:  x55 + x118 + x125 + x172 + x183 + x260 + x282 >= 1
 c45:  x57 + x132 + x189 + x218 + x223 + x255 + x272 + x278 + x290 + x303
       + x313 >= 1
 c46:  x139 + x150 + x169 + x303 >= 1
 c47:  x115 + x148 + x175 + x255 + x306 + x328 + x331 >= 1
 c48:  x178 + x183 + x288 + x311 + x328 + x335 >= 1
 c49:  x37 + x84 + x266 + x289 + x312 >= 1
 c50:  x8 + x42 + x108 + x135 + x162 + x225 + x229 + x278 + x290 + x326 >= 1
 c51:  x125 + x132 + x200 + x224 + x242 + x260 + x306 + x311 + x341 >= 1
 c52:  x66 + x76 + x104 + x155 + x173 + x177 + x202 + x218 + x239 + x281 + x297
       + x308 + x314 >= 1
 c53:  x89 + x140 + x160 + x164 + x267 + x271 + x309 + x330 + x331 + x334 >= 1
 c54:  x3 + x38 + x90 + x105 + x174 + x187 + x236 + x325 >= 1
 c55:  x10 + x76 + x133 + x134 + x163 + x186 + x192 + x222 + x225 + x248 + x250
       + x307 >= 1
 c56:  x48 + x126 + x134 + x138 + x154 + x224 + x295 >= 1
 c57:  x197 + x198 + x223 + x247 + x269 + x286 + x289 + x331 >= 1
 c58:  x61 + x77 + x137 + x153 + x168 + x184 + x205 + x232 + x337 >= 1
 c59:  x35 + x54 + x73 + x154 + x181 + x194 + x245 + x327 >= 1
 c60:  x71 + x152 + x200 + x224 + x233 + x314 + x336 >= 1
 c61:  x10 + x42 + x54 + x76 + x188 + x251 >= 1
 c62:  x3 + x6 + x112 + x122 + x142 + x194 + x205 + x241 + x244 + x273 + x286
       + x305 >= 1
 c63:  x14 + x80 + x169 + x284 + x294 + x329 >= 1
 c64:  x133 + x278 >= 1
 c65:  x206 + x211 + x220 + x233 + x263 + x310 + x338 >= 1
 c66:  x105 + x120 + x232 + x251 + x272 + x297 + x301 + x318 + x321 >= 1
 c67:  x33 + x116 + x183 + x207 + x223 + x240 + x256 + x296 + x316 + x320 >= 1
 c68:  x127 + x134 + x147 + x216 + x240 + x258 + x294 + x324 >= 1
 c69:  x35 + x105 + x152 + x205 >= 1
 c70:  x106 + x143 + x221 + x271 + x333 >= 1
 c71:  x102 + x166 + x209 + x249 + x270 + x308 + x323 + x324 + x327 + x338 >= 1
 c72:  x34 + x78 + x113 + x123 + x187 + x215 + x229 + x274 + x277 + x305 + x330
       >= 1
 c73:  x19 + x24 + x103 + x110 + x114 + x148 + x188 + x265 + x266 + x288 + x301
       + x324 + x335 + x341 >= 1
 c74:  x2 + x13 + x30 + x68 + x118 + x119 + x153 + x172 + x320 + x332 + x341
       >= 1
 c75:  x71 + x114 + x140 + x161 + x191 + x202 + x241 + x325 >= 1
 c76:  x9 + x30 + x231 + x314 + x315 >= 1
 c77:  x37 + x223 + x236 + x313 + x323 >= 1
 c78:  x20 + x78 + x105 + x171 + x186 + x205 + x217 + x230 + x273 + x321 + x328
       >= 1
 c79:  x62 + x137 + x142 + x181 + x217 + x227 + x232 + x268 + x295 + x309 >= 1
 c80:  x24 + x72 + x103 + x151 + x268 + x283 + x289 >= 1
 c81:  x15 + x30 + x74 + x140 + x193 + x235 + x252 + x285 >= 1
 c82:  x2 + x33 + x62 + x74 + x104 + x106 + x110 + x254 + x273 + x318 >= 1
 c83:  x3 + x52 + x230 + x240 + x270 + x340 >= 1
 c84:  x81 + x134 + x163 + x173 + x235 + x257 + x264 + x287 + x298 + x313 >= 1
 c85:  x34 + x212 + x220 + x301 + x314 + x327 + x332 >= 1
 c86:  x63 + x103 + x157 + x209 + x253 + x267 + x318 + x341 >= 1
 c87:  x7 + x85 + x95 + x127 + x152 + x184 + x211 + x223 + x224 + x230 + x249
       + x266 + x297 + x298 >= 1
 c88:  x45 + x83 + x104 + x199 + x210 + x236 + x326 + x338 + x339 >= 1
 c89:  x4 + x15 + x63 + x94 + x135 + x154 + x225 + x302 + x326 + x330 >= 1
 c90:  x33 + x54 + x62 + x117 + x188 + x226 + x243 + x245 + x333 >= 1
 c91:  x146 + x174 + x196 + x210 + x283 + x332 >= 1
 c92:  x1 + x14 + x57 + x61 + x110 + x126 + x237 + x293 + x340 >= 1
 c93:  x13 + x26 + x36 + x74 + x209 + x270 + x317 >= 1
 c94:  x25 + x49 + x75 + x130 + x145 + x222 + x304 + x306 + x335 >= 1
 c95:  x108 + x109 + x137 + x157 + x173 + x177 + x183 + x190 + x229 + x234
       + x270 + x275 + x302 + x308 + x320 + x334 + x341 >= 1
 c96:  x55 + x60 + x61 + x139 + x239 + x285 + x313 >= 1
 c97:  x3 + x12 + x131 + x228 + x241 + x330 >= 1
 c98:  x59 + x280 + x289 + x307 >= 1
 c99:  x31 + x71 + x202 + x237 + x260 >= 1
 c100: x70 + x97 + x171 + x202 + x232 + x299 + x315 >= 1
 c101: x38 + x79 + x88 + x110 + x111 + x130 + x152 + x181 + x233 + x282 >= 1
 c102: x40 + x58 + x110 + x151 + x209 + x224 + x257 + x258 + x325 + x327 >= 1
 c103: x18 + x120 + x145 + x173 + x192 + x229 + x234 >= 1
 c104: x15 + x24 + x55 + x93 + x225 + x226 >= 1
 c105: x39 + x141 + x156 + x254 + x290 + x313 + x335 + x339 >= 1
 c106: x94 + x215 + x228 >= 1
 c107: x61 + x251 >= 1
 c108: x49 + x87 + x91 + x180 + x204 + x289 + x296 + x300 >= 1
 c109: x23 + x70 + x136 + x144 + x154 + x159 + x214 >= 1
 c110: x52 + x115 + x165 + x235 + x273 + x293 >= 1
 c111: x1 + x5 + x16 + x53 + x71 + x119 + x127 + x134 + x188 + x208 + x226 >= 1
 c112: x48 + x61 + x62 + x117 + x162 + x185 + x276 + x296 + x308 >= 1
 c113: x7 + x40 + x72 + x123 + x141 + x217 + x224 + x239 + x266 + x295 + x301
       >= 1
 c114: x33 + x131 + x144 + x248 + x254 + x313 >= 1
 c115: x51 + x64 + x107 + x112 >= 1
 c116: x6 + x82 + x118 + x167 + x197 + x207 + x218 + x232 + x340 >= 1
 c117: x40 + x69 + x122 + x125 + x253 + x260 + x307 + x315 >= 1
 c118: x8 + x28 + x109 + x179 + x191 + x192 + x195 + x205 + x282 + x317 >= 1
 c119: x1 + x187 + x210 + x315 + x318 >= 1
 c120: x12 + x22 + x64 + x67 + x87 + x159 + x265 + x275 >= 1
 c121: x150 + x231 + x297 >= 1
 c122: x37 + x120 + x130 + x157 + x176 + x212 + x223 + x291 + x307 + x319
       + x338 >= 1
 c123: x82 + x190 + x223 + x311 + x317 >= 1
 c124: x16 + x65 + x88 + x100 + x105 + x139 + x156 + x185 + x187 + x227 + x311
       + x317 + x319 >= 1
 c125: x8 + x20 + x136 + x215 + x234 >= 1
 c126: x30 + x68 + x143 + x146 + x187 + x231 + x286 + x302 + x322 >= 1
 c127: x4 + x12 + x35 + x66 + x71 + x78 + x113 + x174 + x249 + x310 >= 1
 c128: x37 + x225 + x252 + x265 + x332 >= 1
 c129: x21 + x38 + x68 + x80 + x119 + x235 + x323 >= 1
 c130: x66 + x72 + x113 + x120 + x142 + x170 + x179 + x209 + x228 + x256 + x300
       + x304 + x321 + x335 + x336 >= 1
 c131: x30 + x39 + x176 + x237 + x259 + x271 + x276 + x308 >= 1
 c132: x194 + x216 + x228 + x244 + x291 + x295 + x299 + x302 + x305 + x317
       + x318 + x325 + x333 + x335 + x336 >= 1
 c133: x30 + x32 + x230 + x300 >= 1
 c134: x17 + x38 + x104 + x166 + x219 + x251 + x291 + x329 >= 1
 c135: x32 + x51 + x77 + x201 + x249 + x266 + x306 + x322 >= 1
 c136: x2 + x48 + x81 + x184 + x204 + x207 + x214 + x249 + x286 >= 1
 c137: x16 + x32 + x52 + x117 + x138 + x146 + x156 + x158 + x284 + x327 >= 1
 c138: x39 + x41 + x70 + x91 + x110 + x225 + x265 + x300 >= 1
 c139: x2 + x31 + x65 + x202 + x318 >= 1
 c140: x3 + x96 + x129 + x172 + x227 + x228 + x275 >= 1
 c141: x21 + x22 + x31 + x32 + x103 + x106 + x124 + x149 + x175 + x184 + x197
       + x251 + x280 + x338 >= 1
 c142: x124 + x198 + x229 + x253 + x271 + x272 + x285 + x305 + x306 + x333 >= 1
 c143: x46 + x95 + x137 + x150 + x193 + x217 + x279 + x338 >= 1
 c144: x61 + x88 + x138 + x151 + x165 + x221 + x236 + x271 + x290 + x294 + x298
       + x324 + x328 >= 1
 c145: x153 + x221 + x292 + x319 >= 1
 c146: x89 + x114 + x164 + x214 + x218 + x223 + x248 + x312 + x323 + x332 >= 1
 c147: x49 + x63 + x74 + x89 + x109 + x214 + x227 + x249 + x269 + x334 >= 1
 c148: x92 + x160 + x223 + x272 + x315 >= 1
 c149: x36 + x104 + x124 + x147 + x208 + x211 + x289 + x337 >= 1
 c150: x68 + x73 + x136 + x213 + x283 + x300 >= 1
 c151: x6 + x42 + x104 + x106 + x107 + x279 >= 1
 c152: x61 + x109 + x119 + x171 + x189 + x283 + x314 >= 1
 c153: x2 + x38 + x70 + x154 + x158 + x257 + x262 >= 1
 c154: x72 + x78 + x121 + x129 + x204 + x213 + x233 + x243 + x249 + x269 + x276
       + x302 + x304 + x321 >= 1
 c155: x15 + x19 + x35 + x55 + x146 + x152 + x166 + x178 + x204 + x208 + x268
       + x283 + x311 >= 1
 c156: x16 + x85 + x94 + x110 + x205 + x225 + x243 + x245 >= 1
 c157: x4 + x226 + x244 + x289 + x336 >= 1
 c158: x44 + x189 + x265 + x268 + x282 >= 1
 c159: x111 + x161 + x207 >= 1
 c160: x9 + x104 + x119 + x213 + x223 + x288 + x292 >= 1
 c161: x4 + x5 + x83 + x103 + x114 + x150 + x167 + x175 + x193 >= 1
 c162: x41 + x86 + x115 + x131 + x150 + x170 + x210 + x267 + x275 + x325 >= 1
 c163: x87 + x103 + x112 + x151 + x179 + x184 + x216 + x259 + x329 >= 1
 c164: x14 + x34 + x112 + x139 + x150 + x263 + x281 + x288 + x305 >= 1
 c165: x22 + x41 + x56 + x92 + x224 + x265 + x314 >= 1
 c166: x4 + x82 + x138 + x151 + x193 + x202 + x324 >= 1
 c167: x47 + x161 + x240 + x309 + x318 + x319 >= 1
 c168: x16 + x56 + x84 + x170 >= 1
 c169: x46 + x70 + x108 + x118 + x179 + x281 + x289 + x299 + x304 + x328 >= 1
 c170: x36 + x106 + x148 + x166 + x207 + x236 + x258 + x266 + x269 + x270
       + x288 + x334 + x340 >= 1
 c171: x30 + x73 + x103 + x144 + x181 + x184 + x195 + x228 + x338 >= 1
 c172: x43 + x171 + x180 + x292 >= 1
 c173: x30 + x38 + x45 + x85 + x92 + x104 + x140 + x221 + x267 + x289 >= 1
 c174: x1 + x4 + x116 + x128 + x183 + x255 >= 1
 c175: x82 + x103 + x151 + x155 + x246 + x247 + x284 + x304 >= 1
 c176: x105 + x128 + x142 + x149 + x155 + x160 + x213 + x231 + x257 + x310
       + x322 + x329 + x339 >= 1
 c177: x63 + x66 + x158 + x308 >= 1
 c178: x11 + x44 + x154 + x156 + x180 + x206 + x274 + x316 + x334 >= 1
 c179: x40 + x73 + x119 + x276 + x291 >= 1
 c180: x45 + x59 + x72 + x137 + x167 + x208 + x327 + x337 >= 1
 c181: x79 + x204 + x277 + x322 + x325 + x337 >= 1
 c182: x108 + x211 + x316 >= 1
 c183: x43 + x139 + x180 + x191 + x202 + x240 >= 1
 c184: x10 + x121 + x143 + x256 + x265 + x315 >= 1
 c185: x135 + x203 + x245 + x250 + x299 + x300 + x321 >= 1
 c186: x62 + x111 + x116 + x122 + x166 + x207 + x252 + x283 + x307 + x319
       + x322 >= 1
 c187: x65 + x107 + x108 + x113 + x117 >= 1
 c188: x5 + x97 + x137 + x138 + x157 + x203 + x211 >= 1
 c189: x31 + x58 + x62 + x75 + x99 + x137 + x279 >= 1
 c190: x25 + x41 + x121 + x149 + x191 + x252 + x273 + x274 + x314 >= 1
 c191: x5 + x13 + x125 + x150 + x206 + x209 + x248 + x302 + x341 >= 1
 c192: x2 + x106 + x155 + x190 + x305 + x322 >= 1
 c193: x19 + x124 + x180 + x235 + x259 + x265 + x281 + x300 >= 1
 c194: x32 + x39 + x63 + x226 + x288 >= 1
 c195: x18 + x46 + x50 + x139 + x235 + x243 + x270 >= 1
 c196: x56 + x121 + x214 + x227 + x237 >= 1
 c197: x70 + x93 + x309 + x336 >= 1
 c198: x1 + x7 + x20 + x40 + x48 + x68 + x153 + x175 + x180 + x192 + x262
       + x338 >= 1
 c199: x6 + x69 + x86 + x114 + x150 + x163 + x239 + x266 + x324 >= 1
 c200: x41 + x134 + x167 + x228 + x261 + x286 + x300 >= 1
 c201: x54 + x65 + x201 + x208 + x224 + x237 + x277 + x287 >= 1
 c202: x194 + x197 + x212 + x260 + x313 + x326 + x327 >= 1
 c203: x100 + x106 + x108 + x192 + x256 + x258 + x288 + x295 + x309 + x331
       + x339 >= 1
 c204: x1 + x35 + x103 + x186 + x206 + x219 + x223 + x226 + x227 + x272 >= 1
 c205: x111 + x140 + x168 + x187 + x196 + x205 + x242 + x285 + x323 + x330 >= 1
 c206: x23 + x31 + x33 + x103 + x199 + x218 + x267 + x341 >= 1
 c207: x6 + x14 + x34 + x47 + x271 >= 1
 c208: x4 + x9 + x62 + x74 + x206 + x212 + x238 + x265 >= 1
 c209: x43 + x124 + x136 + x147 + x225 + x284 >= 1
 c210: x18 + x36 + x48 + x60 + x182 + x252 + x292 >= 1
 c211: x37 + x76 + x290 + x294 + x340 >= 1
 c212: x72 + x81 + x139 + x145 + x165 + x170 + x265 + x267 + x290 + x320 + x336
       + x341 >= 1
 c213: x68 + x81 + x107 + x168 + x179 + x300 + x333 >= 1
 c214: x10 + x12 + x44 + x89 + x113 + x117 + x141 + x153 + x177 + x241 + x286
       + x330 + x333 >= 1
 c215: x8 + x35 + x128 + x134 + x174 + x212 + x220 + x268 >= 1
 c216: x30 + x153 + x202 + x203 + x223 + x288 >= 1
 c217: x3 + x40 + x83 + x225 + x315 + x329 + x340 >= 1
 c218: x7 + x42 + x108 + x123 + x133 + x274 + x290 + x303 + x313 >= 1
 c219: x6 + x26 + x96 + x147 + x157 + x179 + x206 + x268 + x270 + x339 >= 1
 c220: x35 + x110 + x119 + x141 + x181 + x246 + x255 + x257 + x259 + x269
       + x277 + x324 + x330 + x332 >= 1
 c221: x1 + x224 + x270 + x319 >= 1
 c222: x236 + x287 + x293 + x312 + x323 + x337 + x340 >= 1
 c223: x77 + x107 + x134 + x188 + x228 + x310 >= 1
 c224: x61 + x183 + x195 + x200 + x237 >= 1
 c225: x45 + x66 + x117 + x143 + x156 + x187 + x224 + x248 >= 1
 c226: x13 + x67 + x108 + x242 + x246 + x250 + x269 + x270 + x289 + x290 + x294
       + x328 + x337 >= 1
 c227: x16 + x128 + x196 + x246 + x253 + x281 + x313 + x331 >= 1
 c228: x1 + x4 + x67 + x69 + x125 + x185 + x228 + x275 >= 1
 c229: x32 + x43 + x49 + x106 + x113 + x160 + x188 >= 1
 c230: x5 + x27 + x109 + x169 + x180 + x232 + x265 + x269 >= 1
 c231: x30 + x123 + x238 + x265 + x267 >= 1
 c232: x51 + x103 + x151 + x236 + x257 + x261 + x271 + x282 + x292 >= 1
 c233: x84 + x140 + x167 + x190 + x296 + x298 + x305 >= 1
 c234: x120 + x142 + x153 + x159 + x169 + x199 + x233 + x261 + x273 + x306
       + x324 >= 1
 c235: x135 + x182 + x278 + x335 + x338 >= 1
 c236: x42 + x67 + x76 + x106 + x109 + x162 + x189 + x291 + x313 + x322 + x329
       >= 1
 c237: x42 + x47 + x69 + x79 + x107 + x226 + x238 + x319 + x334 >= 1
 c238: x79 + x182 + x213 + x219 + x226 + x300 + x319 + x324 + x329 >= 1
 c239: x11 + x32 + x189 + x276 + x284 + x307 >= 1
 c240: x6 + x11 + x44 + x120 + x156 + x161 + x217 + x244 + x290 >= 1
 c241: x20 + x37 + x40 + x47 + x68 + x203 + x226 + x235 + x248 + x256 + x317
       >= 1
 c242: x17 + x19 + x20 + x67 + x111 + x155 + x230 + x263 + x269 + x295 + x304
       >= 1
 c243: x23 + x111 + x152 + x232 + x324 >= 1
 c244: x14 + x43 + x44 + x98 + x155 + x266 + x303 >= 1
 c245: x103 + x105 + x107 + x165 + x230 + x247 + x274 + x285 + x288 + x317
       + x334 >= 1
 c246: x62 + x116 + x146 + x161 + x231 + x246 + x251 + x284 + x287 + x288
       + x301 >= 1
 c247: x7 + x50 + x75 + x203 + x234 + x336 >= 1
 c248: x13 + x31 + x115 + x182 + x231 + x253 + x256 + x281 >= 1
 c249: x4 + x32 + x108 + x131 + x136 + x189 + x251 + x283 + x284 >= 1
 c250: x80 + x92 + x104 + x129 + x154 >= 1
 c251: x104 + x172 + x182 + x275 + x290 + x320 >= 1
 c252: x3 + x5 + x49 + x113 + x121 + x130 + x179 + x199 + x206 + x208 + x282
       + x309 >= 1
 c253: x219 + x222 + x258 + x310 + x321 + x335 + x340 >= 1
 c254: x9 + x29 + x39 + x188 + x227 + x229 + x268 + x274 >= 1
 c255: x27 + x69 + x71 + x77 + x152 + x205 + x259 + x264 + x283 + x320 >= 1
 c256: x57 + x62 + x90 + x113 + x310 + x325 >= 1
 c257: x34 + x135 + x150 + x230 >= 1
 c258: x9 + x111 + x162 + x179 + x184 + x185 + x233 + x282 >= 1
 c259: x33 + x46 + x129 + x165 + x171 + x203 + x216 + x223 + x233 + x238 >= 1
 c260: x150 + x193 + x285 + x289 + x296 + x304 + x316 + x329 >= 1
 c261: x5 + x18 + x65 + x168 + x198 + x203 + x206 + x212 >= 1
 c262: x2 + x25 + x63 + x148 + x248 + x274 + x293 >= 1
 c263: x8 + x198 + x331 >= 1
 c264: x34 + x101 + x208 + x315 + x316 + x337 >= 1
 c265: x9 + x63 + x109 + x143 + x206 + x219 + x230 + x252 + x291 >= 1
 c266: x50 + x69 + x77 + x116 + x166 + x180 + x196 + x215 + x310 >= 1
 c267: x39 + x154 + x158 + x165 + x176 + x248 + x266 + x302 >= 1
 c268: x65 + x90 + x106 + x121 + x134 + x141 + x145 + x153 + x164 + x191 + x241
       + x255 + x267 + x277 + x335 >= 1
 c269: x17 + x36 + x141 + x186 + x234 + x292 >= 1
 c270: x78 + x80 + x93 + x98 + x196 + x245 + x269 + x312 >= 1
 c271: x83 + x152 + x157 >= 1
 c272: x10 + x153 + x224 + x303 + x306 >= 1
 c273: x103 + x114 + x118 + x122 + x127 + x153 + x164 + x186 + x216 + x239
       + x264 >= 1
 c274: x7 + x9 + x36 + x151 + x225 + x226 + x314 >= 1
 c275: x3 + x158 + x209 >= 1
 c276: x51 + x70 + x115 + x163 + x205 + x284 + x327 >= 1
 c277: x10 + x31 + x79 + x95 + x192 + x304 >= 1
 c278: x3 + x14 + x21 + x97 + x105 + x155 + x229 + x317 + x322 >= 1
 c279: x53 + x66 + x77 + x82 + x159 + x229 + x249 + x250 + x265 + x285 + x325
       >= 1
 c280: x46 + x66 + x74 + x107 + x138 + x157 + x173 + x210 + x227 + x267 + x316
       + x328 + x339 >= 1
 c281: x150 + x231 + x305 + x309 + x332 + x339 >= 1
 c282: x1 + x34 + x81 + x183 + x194 + x242 + x254 >= 1
 c283: x35 + x122 + x163 + x268 + x290 + x304 + x315 + x340 >= 1
 c284: x10 + x41 + x69 + x152 + x181 + x186 >= 1
 c285: x50 + x91 + x111 + x115 + x258 >= 1
 c286: x8 + x73 + x150 + x151 + x155 + x164 + x204 + x315 + x337 >= 1
 c287: x21 + x37 + x83 + x280 + x341 >= 1
 c288: x34 + x50 + x337 >= 1
 c289: x43 + x107 + x149 + x168 + x271 + x300 + x303 >= 1
 c290: x3 + x179 + x182 + x185 + x337 >= 1
 c291: x12 + x19 + x63 + x179 + x220 + x242 >= 1
 c292: x75 + x93 + x136 + x152 + x207 + x210 + x218 + x234 + x250 + x282 + x306
       + x331 >= 1
 c293: x5 + x42 + x234 + x301 + x316 >= 1
 c294: x2 + x52 + x112 + x135 + x138 + x215 + x292 + x300 + x327 + x334 >= 1
 c295: x31 + x44 + x51 + x87 + x126 + x255 + x308 + x334 >= 1
 c296: x112 + x176 + x231 + x239 + x264 + x268 + x281 + x293 + x294 + x334
       + x341 >= 1
 c297: x12 + x64 + x184 + x207 + x227 + x238 + x283 >= 1
 c298: x45 + x80 + x90 + x195 + x282 + x300 >= 1
 c299: x47 + x65 + x88 + x175 + x192 + x207 + x238 + x304 + x323 >= 1
 c300: x11 + x145 + x190 + x233 + x275 + x279 + x304 + x328 >= 1
Bounds
 0 <= x1 <= 1
 0 <= x2 <= 1
 0 <= x3 <= 1
 0 <= x4 <= 1
 0 <= x5 <= 1
 0 <= x6 <= 1
 0 <= x7 <= 1
 0 <= x8 <= 1
 0 <= x9 <= 1
 0 <= x10 <= 1
 0 <= x11 <= 1
 0 <= x12 <= 1
 0 <= x13 <= 1
 0 <= x14 <= 1
 0 <= x15 <= 1
 0 <= x16 <= 1
 0 <= x17 <= 1
 0 <= x18 <= 1
 0 <= x19 <= 1
 0 <= x20 <= 1
 0 <= x21 <= 1
 0 <= x22 <= 1
 0 <= x23 <= 1
 0 <= x24 <= 1
 0 <= x25 <= 1
 0 <= x26 <= 1
 0 <= x27 <= 1
 0 <= x28 <= 1
 0 <= x29 <= 1
 0 <= x30 <= 1
 0 <= x31 <= 1
 0 <= x32 <= 1
 0 <= x33 <= 1
 0 <= x34 <= 1
 0 <= x35 <= 1
 0 <= x36 <= 1
 0 <= x37 <= 1
 0 <= x38 <= 1
 0 <= x39 <= 1
 0 <= x40 <= 1
 0 <= x41 <= 1
 0 <= x42 <= 1
 0 <= x43 <= 1
 0 <= x44 <= 1
 0 <= x45 <= 1
 0 <= x46 <= 1
 0 <= x47 <= 1
 0 <= x48 <= 1
 0 <= x49 <= 1
 0 <= x50 <= 1
 0 <= x51 <= 1
 0 <= x52 <= 1
 0 <= x53 <= 1
 0 <= x54 <= 1
 0 <= x55 <= 1
 0 <= x56 <= 1
 0 <= x57 <= 1
 0 <= x58 <= 1
 0 <= x59 <= 1
 0 <= x60 <= 1
 0 <= x61 <= 1
 0 <= x62 <= 1
 0 <= x63 <= 1
 0 <= x64 <= 1
 0 <= x65 <= 1
 0 <= x66 <= 1
 0 <= x67 <= 1
 0 <= x68 <= 1
 0 <= x69 <= 1
 0 <= x70 <= 1
 0 <= x71 <= 1
 0 <= x72 <= 1
 0 <= x73 <= 1
 0 <= x74 <= 1
 0 <= x75 <= 1
 0 <= x76 <= 1
 0 <= x77 <= 1
 0 <= x78 <= 1
 0 <= x79 <= 1
 0 <= x80 <= 1
 0 <= x81 <= 1
 0 <= x82 <= 1
 0 <= x83 <= 1
 0 <= x84 <= 1
 0 <= x85 <= 1
 0 <= x86 <= 1
 0 <= x87 <= 1
 0 <= x88 <= 1
 0 <= x89 <= 1
 0 <= x90 <= 1
 0 <= x91 <= 1
 0 <= x92 <= 1
 0 <= x93 <= 1
 0 <= x94 <= 1
 0 <= x95 <= 1
 0 <= x96 <= 1
 0 <= x97 <= 1
 0 <= x98 <= 1
 0 <= x99 <= 1
 0 <= x100 <= 1
 0 <= x101 <= 1
 0 <= x102 <= 1
 0 <= x103 <= 1
 0 <= x104 <= 1
 0 <= x105 <= 1
 0 <= x106 <= 1
 0 <= x107 <= 1
 0 <= x108 <= 1
 0 <= x109 <= 1
 0 <= x110 <= 1
 0 <= x111 <= 1
 0 <= x112 <= 1
 0 <= x113 <= 1
 0 <= x114 <= 1
 0 <= x115 <= 1
 0 <= x116 <= 1
 0 <= x117 <= 1
 0 <= x118 <= 1
 0 <= x119 <= 1
 0 <= x120 <= 1
 0 <= x121 <= 1
 0 <= x122 <= 1
 0 <= x123 <= 1
 0 <= x124 <= 1
 0 <= x125 <= 1
 0 <= x126 <= 1
 0 <= x127 <= 1
 0 <= x128 <= 1
 0 <= x129 <= 1
 0 <= x130 <= 1
 0 <= x131 <= 1
 0 <= x132 <= 1
 0 <= x133 <= 1
 0 <= x134 <= 1
 0 <= x135 <= 1
 0 <= x136 <= 1
 0 <= x137 <= 1
 0 <= x138 <= 1
 0 <= x139 <= 1
 0 <= x140 <= 1
 0 <= x141 <= 1
 0 <= x142 <= 1
 0 <= x143 <= 1
 0 <= x144 <= 1
 0 <= x145 <= 1
 0 <= x146 <= 1
 0 <= x147 <= 1
 0 <= x148 <= 1
 0 <= x149 <= 1
 0 <= x150 <= 1
 0 <= x151 <= 1
 0 <= x152 <= 1
 0 <= x153 <= 1
 0 <= x154 <= 1
 0 <= x155 <= 1
 0 <= x156 <= 1
 0 <= x157 <= 1
 0 <= x158 <= 1
 0 <= x159 <= 1
 0 <= x160 <= 1
 0 <= x161 <= 1
 0 <= x162 <= 1
 0 <= x163 <= 1
 0 <= x164 <= 1
 0 <= x165 <= 1
 0 <= x166 <= 1
 0 <= x167 <= 1
 0 <= x168 <= 1
 0 <= x169 <= 1
 0 <= x170 <= 1
 0 <= x171 <= 1
 0 <= x172 <= 1
 0 <= x173 <= 1
 0 <= x174 <= 1
 0 <= x175 <= 1
 0 <= x176 <= 1
 0 <= x177 <= 1
 0 <= x178 <= 1
 0 <= x179 <= 1
 0 <= x180 <= 1
 0 <= x181 <= 1
 0 <= x182 <= 1
 0 <= x183 <= 1
 0 <= x184 <= 1
 0 <= x185 <= 1
 0 <= x186 <= 1
 0 <= x187 <= 1
 0 <= x188 <= 1
 0 <= x189 <= 1
 0 <= x190 <= 1
 0 <= x191 <= 1
 0 <= x192 <= 1
 0 <= x193 <= 1
 0 <= x194 <= 1
 0 <= x195 <= 1
 0 <= x196 <= 1
 0 <= x197 <= 1
 0 <= x198 <= 1
 0 <= x199 <= 1
 0 <= x200 <= 1
 0 <= x201 <= 1
 0 <= x202 <= 1
 0 <= x203 <= 1
 0 <= x204 <= 1
 0 <= x205 <= 1
 0 <= x206 <= 1
 0 <= x207 <= 1
 0 <= x208 <= 1
 0 <= x209 <= 1
 0 <= x210 <= 1
 0 <= x211 <= 1
 0 <= x212 <= 1
 0 <= x213 <= 1
 0 <= x214 <= 1
 0 <= x215 <= 1
 0 <= x216 <= 1
 0 <= x217 <= 1
 0 <= x218 <= 1
 0 <= x219 <= 1
 0 <= x220 <= 1
 0 <= x221 <= 1
 0 <= x222 <= 1
 0 <= x223 <= 1
 0 <= x224 <= 1
 0 <= x225 <= 1
 0 <= x226 <= 1
 0 <= x227 <= 1
 0 <= x228 <= 1
 0 <= x229 <= 1
 0 <= x230 <= 1
 0 <= x231 <= 1
 0 <= x232 <= 1
 0 <= x233 <= 1
 0 <= x234 <= 1
 0 <= x235 <= 1
 0 <= x236 <= 1
 0 <= x237 <= 1
 0 <= x238 <= 1
 0 <= x239 <= 1
 0 <= x240 <= 1
 0 <= x241 <= 1
 0 <= x242 <= 1
 0 <= x243 <= 1
 0 <= x244 <= 1
 0 <= x245 <= 1
 0 <= x246 <= 1
 0 <= x247 <= 1
 0 <= x248 <= 1
 0 <= x249 <= 1
 0 <= x250 <= 1
 0 <= x251 <= 1
 0 <= x252 <= 1
 0 <= x253 <= 1
 0 <= x254 <= 1
 0 <= x255 <= 1
 0 <= x256 <= 1
 0 <= x257 <= 1
 0 <= x258 <= 1
 0 <= x259 <= 1
 0 <= x260 <= 1
 0 <= x261 <= 1
 0 <= x262 <= 1
 0 <= x263 <= 1
 0 <= x264 <= 1
 0 <= x265 <= 1
 0 <= x266 <= 1
 0 <= x267 <= 1
 0 <= x268 <= 1
 0 <= x269 <= 1
 0 <= x270 <= 1
 0 <= x271 <= 1
 0 <= x272 <= 1
 0 <= x273 <= 1
 0 <= x274 <= 1
 0 <= x275 <= 1
 0 <= x276 <= 1
 0 <= x277 <= 1
 0 <= x278 <= 1
 0 <= x279 <= 1
 0 <= x280 <= 1
 0 <= x281 <= 1
 0 <= x282 <= 1
 0 <= x283 <= 1
 0 <= x284 <= 1
 0 <= x285 <= 1
 0 <= x286 <= 1
 0 <= x287 <= 1
 0 <= x288 <= 1
 0 <= x289 <= 1
 0 <= x290 <= 1
 0 <= x291 <= 1
 0 <= x292 <= 1
 0 <= x293 <= 1
 0 <= x294 <= 1
 0 <= x295 <= 1
 0 <= x296 <= 1
 0 <= x297 <= 1
 0 <= x298 <= 1
 0 <= x299 <= 1
 0 <= x300 <= 1
 0 <= x301 <= 1
 0 <= x302 <= 1
 0 <= x303 <= 1
 0 <= x304 <= 1
 0 <= x305 <= 1
 0 <= x306 <= 1
 0 <= x307 <= 1
 0 <= x308 <= 1
 0 <= x309 <= 1
 0 <= x310 <= 1
 0 <= x311 <= 1
 0 <= x312 <= 1
 0 <= x313 <= 1
 0 <= x314 <= 1
 0 <= x315 <= 1
 0 <= x316 <= 1
 0 <= x317 <= 1
 0 <= x318 <= 1
 0 <= x319 <= 1
 0 <= x320 <= 1
 0 <= x321 <= 1
 0 <= x322 <= 1
 0 <= x323 <= 1
 0 <= x324 <= 1
 0 <= x325 <= 1
 0 <= x326 <= 1
 0 <= x327 <= 1
 0 <= x328 <= 1
 0 <= x329 <= 1
 0 <= x330 <= 1
 0 <= x331 <= 1
 0 <= x332 <= 1
 0 <= x333 <= 1
 0 <= x334 <= 1
 0 <= x335 <= 1
 0 <= x336 <= 1
 0 <= x337 <= 1
 0 <= x338 <= 1
 0 <= x339 <= 1
 0 <= x340 <= 1
 0 <= x341 <= 1
Binaries
 x1  x2  x3  x4  x5  x6  x7  x8  x9  x10  x11  x12  x13  x14  x15  x16  x17 
 x18  x19  x20  x21  x22  x23  x24  x25  x26  x27  x28  x29  x30  x31  x32 
 x33  x34  x35  x36  x37  x38  x39  x40  x41  x42  x43  x44  x45  x46  x47 
 x48  x49  x50  x51  x52  x53  x54  x55  x56  x57  x58  x59  x60  x61  x62 
 x63  x64  x65  x66  x67  x68  x69  x70  x71  x72  x73  x74  x75  x76  x77 
 x78  x79  x80  x81  x82  x83  x84  x85  x86  x87  x88  x89  x90  x91  x92 
 x93  x94  x95  x96  x97  x98  x99  x100  x101  x102  x103  x104  x105  x106 
 x107  x108  x109  x110  x111  x112  x113  x114  x115  x116  x117  x118  x119 
 x120  x121  x122  x123  x124  x125  x126  x127  x128  x129  x130  x131  x132 
 x133  x134  x135  x136  x137  x138  x139  x140  x141  x142  x143  x144  x145 
 x146  x147  x148  x149  x150  x151  x152  x153  x154  x155  x156  x157  x158 
 x159  x160  x161  x162  x163  x164  x165  x166  x167  x168  x169  x170  x171 
 x172  x173  x174  x175  x176  x177  x178  x179  x180  x181  x182  x183  x184 
 x185  x186  x187  x188  x189  x190  x191  x192  x193  x194  x195  x196  x197 
 x198  x199  x200  x201  x202  x203  x204  x205  x206  x207  x208  x209  x210 
 x211  x212  x213  x214  x215  x216  x217  x218  x219  x220  x221  x222  x223 
 x224  x225  x226  x227  x228  x229  x230  x231  x232  x233  x234  x235  x236 
 x237  x238  x239  x240  x241  x242  x243  x244  x245  x246  x247  x248  x249 
 x250  x251  x252  x253  x254  x255  x256  x257  x258  x259  x260  x261  x262 
 x263  x264  x265  x266  x267  x268  x269  x270  x271  x272  x273  x274  x275 
 x276  x277  x278  x279  x280  x281  x282  x283  x284  x285  x286  x287  x288 
 x289  x290  x291  x292  x293  x294  x295  x296  x297  x298  x299  x300  x301 
 x302  x303  x304  x305  x306  x307  x308  x309  x310  x311  x312  x313  x314 
 x315  x316  x317  x318  x319  x320  x321  x322  x323  x324  x325  x326  x327 
 x328  x329  x330  x331  x332  x333  x334  x335  x336  x337  x338  x339  x340 
 x341 
End
